(set-info :source |printed by MathSAT|)
(declare-fun |.x{199}| () Int)
(declare-fun |.y{18}| () Int)
(declare-fun |.x{203}| () Int)
(declare-fun |.y{19}| () Int)
(declare-fun |.x{195}| () Int)
(declare-fun |.y{20}| () Int)
(declare-fun |.x{200}| () (Array Int Int))
(declare-fun |.y{21}| () (Array Int Int))
(declare-fun |.x{198}| () Int)
(declare-fun |.y{22}| () Int)
(declare-fun |.y{12}| () Int)
(declare-fun |.y{23}| () Int)
(declare-fun |.y{13}| () Int)
(declare-fun |.y{24}| () Int)
(declare-fun |.y{14}| () Int)
(declare-fun |.y{25}| () Int)
(declare-fun |.y{15}| () Int)
(declare-fun |.y{26}| () Int)
(declare-fun |.y{16}| () (Array Int Int))
(declare-fun |.y{27}| () (Array Int Int))
(declare-fun |.y{17}| () Int)
(declare-fun |.y{28}| () Int)
(declare-fun |.loc{4}| () Bool)
(declare-fun |.loc{7}| () Bool)
(declare-fun |.loc{5}| () Bool)
(declare-fun |.loc{8}| () Bool)
(declare-fun |.loc{6}| () Bool)
(declare-fun |.loc{9}| () Bool)
(declare-fun |.x{133}| () Int)
(declare-fun |.x{135}| () Int)
(declare-fun |.x{201}| () Int)
(define-fun .def_30 () Bool (! |.loc{4}| :next |.loc{7}|))
(define-fun .def_95 () Bool (not .def_30))
(define-fun .def_32 () Bool (! |.loc{5}| :next |.loc{8}|))
(define-fun .def_65 () Bool (not .def_32))
(define-fun .def_294 () Bool (and .def_65 .def_95))
(define-fun .def_34 () Bool (! |.loc{6}| :next |.loc{9}|))
(define-fun .def_82 () Bool (not .def_34))
(define-fun .def_295 () Bool (! (and .def_82 .def_294) :init true))
(define-fun .def_47 () Bool (not |.loc{8}|))
(define-fun .def_286 () Bool (and |.loc{9}| .def_47))
(define-fun .def_16 () Int (! |.x{198}| :next |.y{22}|))
(define-fun .def_12 () Int (! |.x{195}| :next |.y{20}|))
(define-fun .def_248 () Bool (<= .def_12 .def_16))
(define-fun .def_249 () Bool (not .def_248))
(define-fun .def_163 () Int (* (- 1) |.x{201}|))
(define-fun .def_241 () Int (+ .def_16 .def_163))
(define-fun .def_8 () Int (! |.x{199}| :next |.y{18}|))
(define-fun .def_242 () Int (+ .def_8 .def_241))
(define-fun .def_243 () Bool (= .def_242 0))
(define-fun .def_276 () Bool (and .def_243 .def_249))
(define-fun .def_277 () Bool (and .def_34 .def_276))
(define-fun .def_278 () Bool (and .def_95 .def_277))
(define-fun .def_279 () Bool (and .def_65 .def_278))
(define-fun .def_254 () Bool (<= |.x{201}| 0))
(define-fun .def_255 () Bool (not .def_254))
(define-fun .def_100 () Bool (<= .def_8 0))
(define-fun .def_256 () Bool (or .def_100 .def_255))
(define-fun .def_280 () Bool (and .def_256 .def_279))
(define-fun .def_121 () Bool (not .def_100))
(define-fun .def_281 () Bool (and .def_121 .def_280))
(define-fun .def_14 () (Array Int Int) (! |.x{200}| :next |.y{21}|))
(define-fun .def_236 () Int (select .def_14 |.x{201}|))
(define-fun .def_10 () Int (! |.x{203}| :next |.y{19}|))
(define-fun .def_237 () Bool (= .def_10 .def_236))
(define-fun .def_282 () Bool (and .def_237 .def_281))
(define-fun .def_283 () Bool (and |.loc{7}| .def_282))
(define-fun .def_26 () (Array Int Int) (! |.y{16}| :next |.y{27}|))
(define-fun .def_271 () Bool (= |.y{21}| .def_26))
(define-fun .def_269 () Bool (= |.y{20}| .def_16))
(define-fun .def_262 () Bool (= .def_12 0))
(define-fun .def_263 () Bool (not .def_262))
(define-fun .def_28 () Int (! |.y{17}| :next |.y{28}|))
(define-fun .def_202 () Int (* (- 1) .def_28))
(define-fun .def_18 () Int (! |.y{12}| :next |.y{23}|))
(define-fun .def_203 () Int (+ .def_18 .def_202))
(define-fun .def_204 () Bool (<= (- 1) .def_203))
(define-fun .def_264 () Bool (and .def_204 .def_263))
(define-fun .def_60 () Bool (= .def_8 |.y{18}|))
(define-fun .def_265 () Bool (and .def_60 .def_264))
(define-fun .def_266 () Bool (and .def_30 .def_265))
(define-fun .def_267 () Bool (and .def_32 .def_266))
(define-fun .def_63 () Bool (= .def_10 |.y{19}|))
(define-fun .def_268 () Bool (and .def_63 .def_267))
(define-fun .def_270 () Bool (and .def_268 .def_269))
(define-fun .def_272 () Bool (and .def_270 .def_271))
(define-fun .def_128 () Bool (not |.loc{7}|))
(define-fun .def_273 () Bool (and .def_128 .def_272))
(define-fun .def_274 () Bool (and .def_82 .def_273))
(define-fun .def_158 () Bool (= |.y{22}| 0))
(define-fun .def_275 () Bool (and .def_158 .def_274))
(define-fun .def_284 () Bool (or .def_275 .def_283))
(define-fun .def_238 () Bool (not .def_237))
(define-fun .def_244 () Bool (and .def_238 .def_243))
(define-fun .def_245 () Bool (and .def_60 .def_244))
(define-fun .def_246 () Bool (and .def_63 .def_245))
(define-fun .def_247 () Bool (and .def_34 .def_246))
(define-fun .def_250 () Bool (and .def_247 .def_249))
(define-fun .def_251 () Bool (and .def_95 .def_250))
(define-fun .def_252 () Bool (and .def_65 .def_251))
(define-fun .def_110 () Int (* (- 1) |.y{22}|))
(define-fun .def_111 () Int (+ .def_16 .def_110))
(define-fun .def_112 () Bool (= .def_111 (- 1)))
(define-fun .def_253 () Bool (and .def_112 .def_252))
(define-fun .def_257 () Bool (and .def_253 .def_256))
(define-fun .def_188 () Bool (= .def_12 |.y{20}|))
(define-fun .def_258 () Bool (and .def_188 .def_257))
(define-fun .def_259 () Bool (and .def_121 .def_258))
(define-fun .def_119 () Bool (= .def_14 |.y{21}|))
(define-fun .def_260 () Bool (and .def_119 .def_259))
(define-fun .def_261 () Bool (and .def_128 .def_260))
(define-fun .def_285 () Bool (or .def_261 .def_284))
(define-fun .def_287 () Bool (and .def_285 .def_286))
(define-fun .def_22 () Int (! |.y{14}| :next |.y{25}|))
(define-fun .def_234 () Bool (= |.y{22}| .def_22))
(define-fun .def_20 () Int (! |.y{13}| :next |.y{24}|))
(define-fun .def_231 () Bool (= |.y{20}| .def_20))
(define-fun .def_228 () Bool (= |.y{19}| .def_18))
(define-fun .def_24 () Int (! |.y{15}| :next |.y{26}|))
(define-fun .def_116 () Bool (<= .def_24 .def_16))
(define-fun .def_117 () Bool (not .def_116))
(define-fun .def_114 () Bool (= .def_20 0))
(define-fun .def_225 () Bool (and .def_114 .def_117))
(define-fun .def_226 () Bool (not .def_225))
(define-fun .def_223 () Bool (not .def_114))
(define-fun .def_221 () Bool (= .def_14 |.y{27}|))
(define-fun .def_219 () Bool (= |.y{23}| .def_22))
(define-fun .def_213 () Bool (= .def_24 |.y{28}|))
(define-fun .def_214 () Bool (and |.loc{8}| .def_213))
(define-fun .def_58 () Bool (not |.loc{9}|))
(define-fun .def_215 () Bool (and .def_58 .def_214))
(define-fun .def_216 () Bool (and .def_60 .def_215))
(define-fun .def_217 () Bool (and .def_32 .def_216))
(define-fun .def_218 () Bool (and .def_95 .def_217))
(define-fun .def_220 () Bool (and .def_218 .def_219))
(define-fun .def_222 () Bool (and .def_220 .def_221))
(define-fun .def_224 () Bool (and .def_222 .def_223))
(define-fun .def_227 () Bool (and .def_224 .def_226))
(define-fun .def_229 () Bool (and .def_227 .def_228))
(define-fun .def_230 () Bool (and .def_82 .def_229))
(define-fun .def_232 () Bool (and .def_230 .def_231))
(define-fun .def_233 () Bool (and |.loc{7}| .def_232))
(define-fun .def_235 () Bool (and .def_233 .def_234))
(define-fun .def_288 () Bool (or .def_235 .def_287))
(define-fun .def_209 () Int (+ .def_18 .def_163))
(define-fun .def_210 () Bool (= .def_209 (- 1)))
(define-fun .def_205 () Bool (not .def_204))
(define-fun .def_198 () Int (select .def_26 |.x{133}|))
(define-fun .def_199 () (Array Int Int) (store .def_26 |.x{135}| .def_198))
(define-fun .def_200 () Bool (= |.y{27}| .def_199))
(define-fun .def_196 () Bool (= .def_28 |.y{28}|))
(define-fun .def_191 () Int (* (- 1) |.y{23}|))
(define-fun .def_192 () Int (+ .def_18 .def_191))
(define-fun .def_193 () Bool (= .def_192 (- 1)))
(define-fun .def_184 () Bool (<= |.x{135}| 0))
(define-fun .def_185 () Bool (not .def_184))
(define-fun .def_186 () Bool (or .def_100 .def_185))
(define-fun .def_179 () Int (* (- 1) |.x{135}|))
(define-fun .def_180 () Int (+ .def_18 .def_179))
(define-fun .def_181 () Int (+ .def_8 .def_180))
(define-fun .def_182 () Bool (= .def_181 0))
(define-fun .def_43 () Int (* (- 1) |.x{133}|))
(define-fun .def_166 () Int (+ .def_43 |.x{201}|))
(define-fun .def_167 () Int (+ .def_8 .def_166))
(define-fun .def_168 () Bool (= .def_167 0))
(define-fun .def_169 () Bool (and |.loc{8}| .def_168))
(define-fun .def_50 () Bool (<= |.x{133}| 0))
(define-fun .def_51 () Bool (not .def_50))
(define-fun .def_101 () Bool (or .def_51 .def_100))
(define-fun .def_170 () Bool (and .def_101 .def_169))
(define-fun .def_171 () Bool (and .def_58 .def_170))
(define-fun .def_172 () Bool (and .def_60 .def_171))
(define-fun .def_173 () Bool (and .def_30 .def_172))
(define-fun .def_174 () Bool (and .def_32 .def_173))
(define-fun .def_175 () Bool (and .def_63 .def_174))
(define-fun .def_183 () Bool (and .def_175 .def_182))
(define-fun .def_187 () Bool (and .def_183 .def_186))
(define-fun .def_189 () Bool (and .def_187 .def_188))
(define-fun .def_190 () Bool (and .def_121 .def_189))
(define-fun .def_194 () Bool (and .def_190 .def_193))
(define-fun .def_69 () Bool (= .def_16 |.y{22}|))
(define-fun .def_195 () Bool (and .def_69 .def_194))
(define-fun .def_197 () Bool (and .def_195 .def_196))
(define-fun .def_201 () Bool (and .def_197 .def_200))
(define-fun .def_206 () Bool (and .def_201 .def_205))
(define-fun .def_207 () Bool (and .def_82 .def_206))
(define-fun .def_211 () Bool (and .def_207 .def_210))
(define-fun .def_212 () Bool (and |.loc{7}| .def_211))
(define-fun .def_289 () Bool (or .def_212 .def_288))
(define-fun .def_160 () Bool (= .def_16 |.y{23}|))
(define-fun .def_156 () Bool (= |.y{18}| .def_10))
(define-fun .def_151 () Bool (= |.y{24}| 0))
(define-fun .def_149 () Bool (= .def_20 |.y{25}|))
(define-fun .def_143 () Bool (= .def_18 |.y{26}|))
(define-fun .def_144 () Bool (and |.loc{8}| .def_143))
(define-fun .def_145 () Bool (and .def_58 .def_144))
(define-fun .def_146 () Bool (and .def_30 .def_145))
(define-fun .def_147 () Bool (and .def_65 .def_146))
(define-fun .def_148 () Bool (and .def_119 .def_147))
(define-fun .def_150 () Bool (and .def_148 .def_149))
(define-fun .def_152 () Bool (and .def_150 .def_151))
(define-fun .def_79 () Bool (<= .def_18 .def_12))
(define-fun .def_153 () Bool (and .def_79 .def_152))
(define-fun .def_154 () Bool (and .def_128 .def_153))
(define-fun .def_155 () Bool (and .def_82 .def_154))
(define-fun .def_157 () Bool (and .def_155 .def_156))
(define-fun .def_159 () Bool (and .def_157 .def_158))
(define-fun .def_161 () Bool (and .def_159 .def_160))
(define-fun .def_290 () Bool (or .def_161 .def_289))
(define-fun .def_139 () Int (+ .def_16 .def_43))
(define-fun .def_140 () Int (+ .def_8 .def_139))
(define-fun .def_141 () Bool (= .def_140 0))
(define-fun .def_123 () Int (select .def_14 |.x{133}|))
(define-fun .def_124 () Bool (= .def_18 .def_123))
(define-fun .def_131 () Int (ite .def_124 1 .def_20))
(define-fun .def_132 () Bool (= |.y{24}| .def_131))
(define-fun .def_125 () Int (ite .def_124 .def_16 .def_22))
(define-fun .def_126 () Bool (= |.y{25}| .def_125))
(define-fun .def_104 () Bool (= .def_24 |.y{26}|))
(define-fun .def_102 () Bool (and |.loc{8}| .def_101))
(define-fun .def_54 () Bool (= .def_18 |.y{23}|))
(define-fun .def_103 () Bool (and .def_54 .def_102))
(define-fun .def_105 () Bool (and .def_103 .def_104))
(define-fun .def_106 () Bool (and .def_58 .def_105))
(define-fun .def_107 () Bool (and .def_60 .def_106))
(define-fun .def_108 () Bool (and .def_32 .def_107))
(define-fun .def_109 () Bool (and .def_95 .def_108))
(define-fun .def_113 () Bool (and .def_109 .def_112))
(define-fun .def_115 () Bool (and .def_113 .def_114))
(define-fun .def_118 () Bool (and .def_115 .def_117))
(define-fun .def_120 () Bool (and .def_118 .def_119))
(define-fun .def_122 () Bool (and .def_120 .def_121))
(define-fun .def_127 () Bool (and .def_122 .def_126))
(define-fun .def_129 () Bool (and .def_127 .def_128))
(define-fun .def_133 () Bool (and .def_129 .def_132))
(define-fun .def_134 () Bool (and .def_82 .def_133))
(define-fun .def_142 () Bool (and .def_134 .def_141))
(define-fun .def_291 () Bool (or .def_142 .def_290))
(define-fun .def_90 () Bool (<= |.y{23}| 0))
(define-fun .def_91 () Bool (not .def_90))
(define-fun .def_87 () Bool (<= |.y{19}| 0))
(define-fun .def_88 () Bool (not .def_87))
(define-fun .def_85 () Bool (= |.y{20}| 0))
(define-fun .def_86 () Bool (and .def_47 .def_85))
(define-fun .def_89 () Bool (and .def_86 .def_88))
(define-fun .def_92 () Bool (and .def_89 .def_91))
(define-fun .def_93 () Bool (and .def_58 .def_92))
(define-fun .def_94 () Bool (and .def_60 .def_93))
(define-fun .def_96 () Bool (and .def_94 .def_95))
(define-fun .def_97 () Bool (and .def_65 .def_96))
(define-fun .def_98 () Bool (and .def_82 .def_97))
(define-fun .def_99 () Bool (and |.loc{7}| .def_98))
(define-fun .def_292 () Bool (or .def_99 .def_291))
(define-fun .def_80 () Bool (not .def_79))
(define-fun .def_76 () (Array Int Int) (store .def_14 |.x{133}| |.x{135}|))
(define-fun .def_77 () Bool (= |.y{21}| .def_76))
(define-fun .def_71 () Int (* (- 1) |.y{20}|))
(define-fun .def_72 () Int (+ .def_12 .def_71))
(define-fun .def_73 () Bool (= .def_72 (- 1)))
(define-fun .def_67 () Bool (= .def_20 |.y{24}|))
(define-fun .def_49 () Bool (<= .def_10 0))
(define-fun .def_56 () Bool (not .def_49))
(define-fun .def_52 () Bool (or .def_49 .def_51))
(define-fun .def_44 () Int (+ .def_12 .def_43))
(define-fun .def_45 () Int (+ .def_10 .def_44))
(define-fun .def_46 () Bool (= .def_45 0))
(define-fun .def_48 () Bool (and .def_46 .def_47))
(define-fun .def_53 () Bool (and .def_48 .def_52))
(define-fun .def_55 () Bool (and .def_53 .def_54))
(define-fun .def_57 () Bool (and .def_55 .def_56))
(define-fun .def_59 () Bool (and .def_57 .def_58))
(define-fun .def_61 () Bool (and .def_59 .def_60))
(define-fun .def_62 () Bool (and .def_30 .def_61))
(define-fun .def_64 () Bool (and .def_62 .def_63))
(define-fun .def_66 () Bool (and .def_64 .def_65))
(define-fun .def_68 () Bool (and .def_66 .def_67))
(define-fun .def_70 () Bool (and .def_68 .def_69))
(define-fun .def_74 () Bool (and .def_70 .def_73))
(define-fun .def_78 () Bool (and .def_74 .def_77))
(define-fun .def_81 () Bool (and .def_78 .def_80))
(define-fun .def_83 () Bool (and .def_81 .def_82))
(define-fun .def_84 () Bool (and |.loc{7}| .def_83))
(define-fun .def_293 () Bool (! (or .def_84 .def_292) :trans true))
(define-fun .def_296 () Bool (and .def_30 .def_65))
(define-fun .def_297 () Bool (and .def_34 .def_296))
(define-fun .def_298 () Bool (! (not .def_297) :invar-property 0))
(assert true)
